p tw 25 63
0 1
0 8
0 17
0 16
1 16
1 21
1 2
1 12
2 3
3 8
3 9
3 17
3 18
3 15
3 10
3 11
3 19
3 21
4 5
4 7
4 22
4 6
4 14
4 15
4 19
5 11
5 13
5 21
5 7
5 20
5 19
5 15
6 7
6 8
6 12
6 14
7 22
8 24
8 10
8 12
9 23
9 17
10 11
10 12
10 20
11 16
11 13
11 18
12 13
12 19
12 24
12 21
13 15
13 23
13 22
14 15
14 20
14 21
16 20
18 19
18 24
19 22
21 22
